qbf_easy_train/easy_753_UNSAT.qdimacs
p cnf 28 76
a 1 10 20 0
e 2 3 4 5 6 7 8 9 11 12 13 14 15 16 17 18 19 21 22 23 24 25 26 27 28 0
4 2 0
4 3 0
-2 -3 -4 0
1 4 -5 0
-1 -4 -5 0
1 -4 5 0
-1 4 5 0
-6 -4 -7 0
6 4 -7 0
-6 4 7 0
6 -4 7 0
8 5 0
8 -7 0
-5 7 -8 0
-11 9 0
-11 10 0
-9 -10 11 0
13 -12 0
13 1 0
12 -1 -13 0
-14 11 0
-14 -13 0
-11 13 14 0
-15 -13 0
-15 -11 0
13 11 15 0
9 13 -16 0
-9 -13 -16 0
9 -13 16 0
-9 13 16 0
15 16 -17 0
-15 -16 -17 0
15 -16 17 0
-15 16 17 0
18 14 0
18 -17 0
-14 17 -18 0
11 -2 -19 0
-11 2 -19 0
11 2 19 0
-11 -2 19 0
19 -20 -21 0
-19 20 -21 0
19 20 21 0
-19 -20 21 0
-12 1 -22 0
12 -1 -22 0
-12 -1 22 0
12 1 22 0
23 21 0
23 -22 0
-21 22 -23 0
18 23 -24 0
-18 -23 -24 0
18 -23 24 0
-18 23 24 0
-25 -2 0
-25 -9 0
2 9 25 0
-26 -25 0
-26 -2 0
25 2 26 0
27 24 0
27 26 0
-24 -26 -27 0
-28 8 0
-28 27 0
-8 -27 28 0
13 -8 -25 11 0
-15 10 -27 -19 0
27 -10 -14 0
15 -10 0
-7 19 12 0
14 3 -10 7 0
-1 -4 21 0
28 0
