sat_easy_train/easy_753_UNSAT.dimacs
p cnf 148 501
-3 -1 0
-3 2 0
1 -2 3 0
5 -6 -7 0
-5 6 -7 0
5 6 7 0
-5 -6 7 0
8 4 0
8 -7 0
-4 7 -8 0
10 9 0
10 5 0
-9 -5 -10 0
13 11 0
13 12 0
-11 -12 -13 0
-13 14 -15 0
13 -14 -15 0
-13 -14 15 0
13 14 15 0
-10 -15 -16 0
10 15 -16 0
-10 15 16 0
10 -15 16 0
-10 -16 -17 0
10 16 -17 0
-10 16 17 0
10 -16 17 0
18 -8 0
18 -17 0
8 17 -18 0
20 -10 0
20 6 0
10 -6 -20 0
-19 -20 -21 0
19 20 -21 0
-19 20 21 0
19 -20 21 0
22 -4 0
22 9 0
4 -9 -22 0
23 -22 0
23 14 0
22 -14 -23 0
24 21 0
24 23 0
-21 -23 -24 0
25 18 0
25 -24 0
-18 24 -25 0
26 5 0
26 -5 0
28 -26 0
28 -27 0
26 27 -28 0
-29 28 0
-29 14 0
-28 -14 29 0
11 -30 -31 0
-11 30 -31 0
11 30 31 0
-11 -30 31 0
32 -20 0
32 31 0
20 -31 -32 0
-32 33 -34 0
32 -33 -34 0
-32 -33 34 0
32 33 34 0
-36 -12 0
-36 -27 0
12 27 36 0
-37 35 0
-37 36 0
-35 -36 37 0
38 -30 0
38 -26 0
30 26 -38 0
39 -4 0
39 38 0
4 -38 -39 0
40 -37 0
40 -39 0
37 39 -40 0
-41 10 0
-41 -40 0
-10 40 41 0
-42 -34 0
-42 -41 0
34 41 42 0
-43 -29 0
-43 42 0
29 -42 43 0
-1 36 -44 0
1 -36 -44 0
-1 -36 44 0
1 36 44 0
2 30 -45 0
-2 -30 -45 0
2 -30 45 0
-2 30 45 0
-46 -2 0
-46 -45 0
2 45 46 0
28 -46 -47 0
-28 46 -47 0
28 46 47 0
-28 -46 47 0
-48 44 0
-48 47 0
-44 -47 48 0
-49 43 0
-49 48 0
-43 -48 49 0
-51 -1 0
-51 -50 0
1 50 51 0
52 -51 0
52 -12 0
51 12 -52 0
-53 35 0
-53 -33 0
-35 33 53 0
-54 52 0
-54 -53 0
-52 53 54 0
55 -13 0
55 30 0
13 -30 -55 0
-56 30 0
-56 55 0
-30 -55 56 0
57 54 0
57 56 0
-54 -56 -57 0
-49 -57 -58 0
49 57 -58 0
-49 57 58 0
49 -57 58 0
59 -25 0
59 -58 0
25 58 -59 0
3 -59 -60 0
-3 59 -60 0
3 59 60 0
-3 -59 60 0
51 7 -61 0
-51 -7 -61 0
51 -7 61 0
-51 7 61 0
-62 -4 0
-62 -9 0
4 9 62 0
-63 -62 0
-63 28 0
62 -28 63 0
64 -28 0
64 -35 0
28 35 -64 0
65 -5 0
65 64 0
5 -64 -65 0
1 -45 -66 0
-1 45 -66 0
1 45 66 0
-1 -45 66 0
-67 65 0
-67 66 0
-65 -66 67 0
68 10 0
68 11 0
-10 -11 -68 0
69 -67 0
69 -68 0
67 68 -69 0
-70 63 0
-70 -69 0
-63 69 70 0
-71 61 0
-71 -70 0
-61 70 71 0
72 35 0
72 39 0
-35 -39 -72 0
73 -6 0
73 -45 0
6 45 -73 0
-74 -72 0
-74 -73 0
72 73 74 0
75 10 0
75 -11 0
-10 11 -75 0
-20 -51 -76 0
20 51 -76 0
-20 51 76 0
20 -51 76 0
77 50 0
77 30 0
-50 -30 -77 0
-78 66 0
-78 -77 0
-66 77 78 0
76 -78 -79 0
-76 78 -79 0
76 78 79 0
-76 -78 79 0
-50 -26 -80 0
50 26 -80 0
-50 26 80 0
50 -26 80 0
-81 80 0
-81 46 0
-80 -46 81 0
-79 -81 -82 0
79 81 -82 0
-79 81 82 0
79 -81 82 0
7 9 -83 0
-7 -9 -83 0
7 -9 83 0
-7 9 83 0
-15 -83 -84 0
15 83 -84 0
-15 83 84 0
15 -83 84 0
-84 31 -85 0
84 -31 -85 0
-84 -31 85 0
84 31 85 0
86 1 0
86 84 0
-1 -84 -86 0
87 85 0
87 -86 0
-85 86 -87 0
88 -82 0
88 -87 0
82 87 -88 0
89 -75 0
89 -88 0
75 88 -89 0
-90 -74 0
-90 89 0
74 -89 90 0
-91 40 0
-91 -62 0
-40 62 91 0
53 35 -92 0
-53 -35 -92 0
53 -35 92 0
-53 35 92 0
93 -19 0
93 92 0
19 -92 -93 0
94 -2 0
94 28 0
2 -28 -94 0
95 -94 0
95 -33 0
94 33 -95 0
-96 -93 0
-96 95 0
93 -95 96 0
16 -4 -97 0
-16 4 -97 0
16 4 97 0
-16 -4 97 0
-98 -97 0
-98 -2 0
97 2 98 0
-99 -96 0
-99 -98 0
96 98 99 0
-100 -91 0
-100 99 0
91 -99 100 0
-101 4 0
-101 -38 0
-4 38 101 0
102 -26 0
102 7 0
26 -7 -102 0
103 101 0
103 102 0
-101 -102 -103 0
-104 100 0
-104 -103 0
-100 103 104 0
90 -104 -105 0
-90 104 -105 0
90 104 105 0
-90 -104 105 0
-106 40 0
-106 -96 0
-40 96 106 0
-105 -106 -107 0
105 106 -107 0
-105 106 107 0
105 -106 107 0
-108 -28 0
-108 64 0
28 -64 108 0
-93 -108 -109 0
93 108 -109 0
-93 108 109 0
93 -108 109 0
-110 -107 0
-110 -109 0
107 109 110 0
111 -71 0
111 -110 0
71 110 -111 0
113 -112 0
113 46 0
112 -46 -113 0
114 1 0
114 -2 0
-1 2 -114 0
-9 -10 -115 0
9 10 -115 0
-9 10 115 0
9 -10 115 0
-45 -115 -116 0
45 115 -116 0
-45 115 116 0
45 -115 116 0
117 114 0
117 116 0
-114 -116 -117 0
113 117 -118 0
-113 -117 -118 0
113 -117 118 0
-113 117 118 0
119 -13 0
119 31 0
13 -31 -119 0
120 -92 0
120 -31 0
92 31 -120 0
121 -10 0
121 120 0
10 -120 -121 0
-119 121 -122 0
119 -121 -122 0
-119 -121 122 0
119 121 122 0
-123 118 0
-123 122 0
-118 -122 123 0
124 -14 0
124 53 0
14 -53 -124 0
-125 -80 0
-125 14 0
80 -14 125 0
125 9 -126 0
-125 -9 -126 0
125 -9 126 0
-125 9 126 0
-127 -124 0
-127 -126 0
124 126 127 0
128 -52 0
128 -4 0
52 4 -128 0
-127 -128 -129 0
127 128 -129 0
-127 128 129 0
127 -128 129 0
-130 7 0
-130 -45 0
-7 45 130 0
-65 64 -131 0
65 -64 -131 0
-65 -64 131 0
65 64 131 0
132 130 0
132 131 0
-130 -131 -132 0
-129 132 -133 0
129 -132 -133 0
-129 -132 133 0
129 132 133 0
-134 -123 0
-134 -133 0
123 133 134 0
135 33 0
135 80 0
-33 -80 -135 0
136 12 0
136 -5 0
-12 5 -136 0
-50 65 -137 0
50 -65 -137 0
-50 -65 137 0
50 65 137 0
138 -33 0
138 4 0
33 -4 -138 0
-137 -138 -139 0
137 138 -139 0
-137 138 139 0
137 -138 139 0
-140 -136 0
-140 -139 0
136 139 140 0
-141 -2 0
-141 92 0
2 -92 141 0
141 51 -142 0
-141 -51 -142 0
141 -51 142 0
-141 51 142 0
-143 142 0
-143 52 0
-142 -52 143 0
140 -143 -144 0
-140 143 -144 0
140 143 144 0
-140 -143 144 0
135 144 -145 0
-135 -144 -145 0
135 -144 145 0
-135 144 145 0
-146 134 0
-146 145 0
-134 -145 146 0
-111 146 -147 0
111 -146 -147 0
-111 -146 147 0
111 146 147 0
-148 60 0
-148 -147 0
-60 147 148 0
105 -141 77 -45 -1 0
-51 87 143 -20 30 -97 0
-17 113 123 52 -93 0
-102 -20 134 84 7 0
83 -126 123 8 -82 0
146 -41 38 83 -36 97 0
86 36 -8 -62 -64 73 0
125 68 -29 -35 15 -134 0
84 -80 137 -66 79 0
51 -10 -39 -48 -91 0
83 -58 88 0
-148 -102 -18 77 105 0
-132 70 146 0
-97 -27 0
-147 -7 41 -71 16 -1 0
-129 -56 -41 0
45 -47 18 -135 20 0
-111 80 105 0
-147 43 0
-16 -91 -76 0
-130 -144 -49 42 0
54 51 0
113 -94 54 14 44 0
97 116 0
-5 -69 55 0
-64 90 130 -26 -68 -2 0
-147 -39 -51 -63 0
-129 -126 -46 1 0
-32 102 0
-86 -67 -42 -5 28 -29 0
66 32 -102 -115 0
34 -115 43 24 -6 63 0
25 38 57 39 0
30 -19 -11 72 0
-46 -103 -82 0
-69 -128 -105 -111 76 -80 0
-127 -124 43 -51 -132 -37 0
-41 27 -58 -71 0
22 111 21 0
-32 -49 -102 75 0
-5 25 0
-23 -29 -128 143 -67 0
25 -67 1 4 0
116 112 -6 -108 -14 0
89 -55 3 54 -148 0
76 68 -44 -147 0
11 -47 54 6 39 -36 0
93 -64 -113 0
31 76 138 0
-61 72 0
-36 -132 0
99 -44 -31 -39 0
-33 3 138 63 0
108 -41 -119 0
143 49 -38 56 0
-68 -67 87 -17 -79 78 0
28 121 32 0
-84 -47 69 40 0
-15 -47 25 0
-126 51 148 -43 73 147 0
58 -47 0
125 45 0
145 -32 35 137 -72 0
24 -14 10 -111 -26 37 0
-117 -148 0
148 0
